c THIS FORMULA IS GENERATED BY CNF
c 
c atomics
c X_PI <= 48.12_1_p:1
c X_PI <= 48.12_1_n:2
c C_2_2:3
c X_GS <= 37.89_2_n:4
c X_PI <= 42.09_1_s:5
c X_PI <= 42.09_2_p:6
c X_GS <= 37.89_1_p:7
c X_PI <= 42.09_1_n:8
c X_PI <= 48.12_2_p:9
c C_1_2:10
c X_PI <= 42.09_1_p:11
c C_2_1:12
c X_PI <= 48.12_2_n:13
c X_PI <= 42.09_2_s:14
c X_PI <= 48.12_1_s:15
c X_PI <= 42.09_2_n:16
c X_GS <= 37.89_2_s:17
c X_GS <= 37.89_1_s:18
c X_GS <= 37.89_2_p:19
c X_PI <= 48.12_2_s:20
c X_GS <= 37.89_1_n:21
c C_1_1:22
c end atomics
p cnf 22 179
